<?xml version = "1.0" encoding="UTF-8" standalone="yes"?>
<CPLEXSolution version="1.2">
 <header
   problemName="IloCplex"
   solutionName="p0"
   solutionIndex="-1"
   objectiveValue="0"
   solutionTypeValue="3"
   solutionTypeString="primal"
   solutionStatusValue="127"
   solutionStatusString="integer feasible solution"
   solutionMethodString="mip"
   primalFeasible="0"
   dualFeasible="0"
   writeLevel="3"/>
 <quality
   epInt="1.0000000000000001e-05"
   epRHS="9.9999999999999995e-07"
   maxIntInfeas="0"
   maxPrimalInfeas="0"
   maxX="664"
   maxSlack="564"/>
 <variables>
  <variable index="22" value="1"/>
  <variable index="152" value="1"/>
  <variable index="224" value="1"/>
  <variable index="361" value="1"/>
  <variable index="463" value="1"/>
  <variable index="513" value="1"/>
  <variable index="630" value="1"/>
  <variable index="716" value="1"/>
  <variable index="848" value="1"/>
  <variable index="982" value="1"/>
  <variable index="1064" value="1"/>
  <variable index="1190" value="1"/>
  <variable index="1299" value="1"/>
  <variable index="1375" value="1"/>
  <variable index="1428" value="1"/>
  <variable index="1545" value="1"/>
  <variable index="1629" value="1"/>
  <variable index="1742" value="1"/>
  <variable index="1850" value="1"/>
  <variable index="1968" value="1"/>
  <variable index="2078" value="1"/>
  <variable index="2118" value="1"/>
  <variable index="2210" value="1"/>
  <variable index="2389" value="1"/>
  <variable index="2471" value="1"/>
  <variable index="2565" value="1"/>
  <variable index="2691" value="1"/>
  <variable index="2785" value="1"/>
  <variable index="2833" value="1"/>
  <variable index="2957" value="1"/>
  <variable index="3059" value="1"/>
  <variable index="3112" value="1"/>
  <variable index="3227" value="1"/>
  <variable index="3384" value="1"/>
  <variable index="3480" value="1"/>
  <variable index="3595" value="1"/>
  <variable index="3620" value="1"/>
  <variable index="3751" value="1"/>
  <variable index="3826" value="1"/>
  <variable index="4005" value="1"/>
  <variable index="4098" value="1"/>
  <variable index="4158" value="1"/>
  <variable index="4238" value="1"/>
  <variable index="4356" value="1"/>
  <variable index="4500" value="1"/>
  <variable index="4519" value="1"/>
  <variable index="4694" value="1"/>
  <variable index="4772" value="1"/>
  <variable index="4860" value="1"/>
  <variable index="4969" value="1"/>
  <variable index="5108" value="1"/>
  <variable index="5183" value="1"/>
  <variable index="5241" value="1"/>
  <variable index="5381" value="1"/>
  <variable index="5444" value="1"/>
  <variable index="5603" value="1"/>
  <variable index="5709" value="1"/>
  <variable index="5753" value="1"/>
  <variable index="5846" value="1"/>
  <variable index="5955" value="1"/>
  <variable index="6047" value="1"/>
  <variable index="6166" value="1"/>
  <variable index="6288" value="1"/>
  <variable index="6321" value="1"/>
  <variable index="6423" value="1"/>
  <variable index="6577" value="1"/>
  <variable index="6704" value="1"/>
  <variable index="6767" value="1"/>
  <variable index="6836" value="1"/>
  <variable index="7002" value="1"/>
  <variable index="7017" value="1"/>
  <variable index="7196" value="1"/>
  <variable index="7293" value="1"/>
  <variable index="7386" value="1"/>
  <variable index="7476" value="1"/>
  <variable index="7543" value="1"/>
  <variable index="7701" value="1"/>
  <variable index="7807" value="1"/>
  <variable index="7870" value="1"/>
  <variable index="7949" value="1"/>
  <variable index="8062" value="1"/>
  <variable index="8137" value="1"/>
  <variable index="8211" value="1"/>
  <variable index="8406" value="1"/>
  <variable index="8425" value="1"/>
  <variable index="8539" value="1"/>
  <variable index="8697" value="1"/>
  <variable index="8714" value="1"/>
  <variable index="8874" value="1"/>
  <variable index="8934" value="1"/>
  <variable index="9079" value="1"/>
  <variable index="9135" value="1"/>
  <variable index="9240" value="1"/>
  <variable index="9315" value="1"/>
  <variable index="9454" value="1"/>
  <variable index="9592" value="1"/>
  <variable index="9673" value="1"/>
  <variable index="9731" value="1"/>
  <variable index="9887" value="1"/>
  <variable index="9932" value="1"/>
  <variable index="10020" value="664"/>
 </variables>
</CPLEXSolution>
